(set-logic QF_UF)
(declare-fun A0 () Bool)
(declare-fun A1 () Bool)
(declare-fun A2 () Bool)
(declare-fun A3 () Bool)
(declare-fun A4 () Bool)
(declare-fun A5 () Bool)
(declare-fun A7 () Bool)
(declare-fun A9 () Bool)
(declare-fun A10 () Bool)
(declare-fun A11 () Bool)
(declare-fun A12 () Bool)
(declare-fun A13 () Bool)
(declare-fun A14 () Bool)
(declare-fun A16 () Bool)
(declare-fun A17 () Bool)
(declare-fun A18 () Bool)
(declare-fun A20 () Bool)
(declare-fun A21 () Bool)
(declare-fun A22 () Bool)
(declare-fun A23 () Bool)
(declare-fun A24 () Bool)
(declare-fun A25 () Bool)
(declare-fun A27 () Bool)
(declare-fun A28 () Bool)
(declare-fun A29 () Bool)
(assert (let ((.def_0 (not A12))) (let ((.def_1 (and A4 .def_0))) (let ((.def_2 (not .def_1))) (let ((.def_3 (not A5))) (let ((.def_4 (not A9))) (let ((.def_5 (and .def_4 .def_3))) (let ((.def_6 (not .def_5))) (let ((.def_7 (or .def_6 .def_2))) (let ((.def_8 (not .def_7))) (let ((.def_9 (not A14))) (let ((.def_10 (or .def_9 A14))) (let ((.def_11 (and A1 A14))) (let ((.def_12 (= .def_11 .def_10))) (let ((.def_13 (and .def_12 .def_8))) (let ((.def_14 (not A2))) (let ((.def_15 (not A27))) (let ((.def_16 (or .def_15 .def_14))) (let ((.def_17 (not .def_16))) (let ((.def_18 (not A3))) (let ((.def_19 (and .def_18 .def_18))) (let ((.def_20 (not .def_19))) (let ((.def_21 (or .def_20 .def_17))) (let ((.def_22 (not .def_21))) (let ((.def_23 (not A28))) (let ((.def_24 (and .def_23 A27))) (let ((.def_25 (not A13))) (let ((.def_26 (and .def_25 A27))) (let ((.def_27 (or .def_26 .def_24))) (let ((.def_28 (and .def_27 .def_22))) (let ((.def_29 (= .def_28 .def_13))) (let ((.def_30 (not A7))) (let ((.def_31 (or .def_30 A20))) (let ((.def_32 (not .def_31))) (let ((.def_33 (not A16))) (let ((.def_34 (= A7 .def_33))) (let ((.def_35 (or .def_34 .def_32))) (let ((.def_36 (or A4 A14))) (let ((.def_37 (or A25 A28))) (let ((.def_38 (not .def_37))) (let ((.def_39 (or .def_38 .def_36))) (let ((.def_40 (and .def_39 .def_35))) (let ((.def_41 (not .def_40))) (let ((.def_42 (or .def_25 A23))) (let ((.def_43 (not .def_42))) (let ((.def_44 (not A1))) (let ((.def_45 (and .def_44 A16))) (let ((.def_46 (not .def_45))) (let ((.def_47 (= .def_46 .def_43))) (let ((.def_48 (not .def_47))) (let ((.def_49 (not A22))) (let ((.def_50 (not A0))) (let ((.def_51 (and .def_50 .def_49))) (let ((.def_52 (not .def_51))) (let ((.def_53 (not A21))) (let ((.def_54 (and .def_53 A7))) (let ((.def_55 (or .def_54 .def_52))) (let ((.def_56 (or .def_55 .def_48))) (let ((.def_57 (and .def_56 .def_41))) (let ((.def_58 (not .def_57))) (let ((.def_59 (and .def_58 .def_29))) (let ((.def_60 (not .def_59))) (let ((.def_61 (not A4))) (let ((.def_62 (or A11 .def_61))) (let ((.def_63 (not A24))) (let ((.def_64 (or .def_63 A20))) (let ((.def_65 (and .def_64 .def_62))) (let ((.def_66 (not .def_65))) (let ((.def_67 (and .def_14 A29))) (let ((.def_68 (not .def_67))) (let ((.def_69 (not A23))) (let ((.def_70 (or A21 .def_69))) (let ((.def_71 (not .def_70))) (let ((.def_72 (or .def_71 .def_68))) (let ((.def_73 (or .def_72 .def_66))) (let ((.def_74 (not A18))) (let ((.def_75 (or .def_74 .def_0))) (let ((.def_76 (not .def_75))) (let ((.def_77 (and A22 .def_61))) (let ((.def_78 (and .def_77 .def_76))) (let ((.def_79 (not .def_78))) (let ((.def_80 (or .def_69 .def_4))) (let ((.def_81 (and A27 A14))) (let ((.def_82 (not .def_81))) (let ((.def_83 (or .def_82 .def_80))) (let ((.def_84 (not .def_83))) (let ((.def_85 (and .def_84 .def_79))) (let ((.def_86 (= .def_85 .def_73))) (let ((.def_87 (not .def_86))) (let ((.def_88 (and .def_74 A2))) (let ((.def_89 (not .def_88))) (let ((.def_90 (or A23 .def_30))) (let ((.def_91 (not .def_90))) (let ((.def_92 (and .def_91 .def_89))) (let ((.def_93 (not .def_92))) (let ((.def_94 (or A7 A7))) (let ((.def_95 (not A10))) (let ((.def_96 (or .def_95 .def_49))) (let ((.def_97 (not .def_96))) (let ((.def_98 (or .def_97 .def_94))) (let ((.def_99 (and .def_98 .def_93))) (let ((.def_100 (and .def_50 .def_9))) (let ((.def_101 (not .def_100))) (let ((.def_102 (or A7 .def_14))) (let ((.def_103 (not .def_102))) (let ((.def_104 (and .def_103 .def_101))) (let ((.def_105 (or A11 .def_95))) (let ((.def_106 (not .def_105))) (let ((.def_107 (or A17 .def_44))) (let ((.def_108 (or .def_107 .def_106))) (let ((.def_109 (and .def_108 .def_104))) (let ((.def_110 (not .def_109))) (let ((.def_111 (and .def_110 .def_99))) (let ((.def_112 (not .def_111))) (let ((.def_113 (or .def_112 .def_87))) (let ((.def_114 (or .def_113 .def_60))) (let ((.def_115 (not .def_114))) .def_115)))))))))))))))))))))))))))))))))))))))))))))))))))))))))))))))))))))))))))))))))))))))))))))))))))))))))))))))))))))
(check-sat)
